p cnf 16 42 
c c 1 UNIONFINDSPL___
c c 2 _UNIONFINDSPL___
c c 3 UNIONFIND___
c c 4 TESTS___
c c 5 QU_WEIGHTED_MODIFICATIONS___
c c 6 QU_WEIGHTED___
c c 7 _QUICKFIND___
c c 8 QUICKFIND___
c c 9 _QUICKUNION___
c c 10 QUICKUNION___
c c 11 _WQU_HALFING___
c c 12 WQU_HALFING___
c c 13 _WQU_BYHEIGHT___
c c 14 WQU_BYHEIGHT___
c c 15 _WQU_PATHCOMPRESSION___
c c 16 WQU_PATHCOMPRESSION___
c ((UNIONFIND___ iff (_QUICKUNION___ or _QUICKFIND___)) and atmostone(_QUICKUNION___,_QUICKFIND___))
c ((not UNIONFIND___ or _QUICKUNION___ or _QUICKFIND___) and ((not _QUICKUNION___ and not _QUICKFIND___) or UNIONFIND___) and (not _QUICKUNION___ or not _QUICKFIND___))
c x ((not UNIONFIND___ or _QUICKUNION___ or _QUICKFIND___) and (not _QUICKUNION___ or UNIONFIND___) and (not _QUICKFIND___ or UNIONFIND___) and (not _QUICKUNION___ or not _QUICKFIND___))
-3 9 7  0
-9 3  0
-7 3  0
-9 -7  0
c ((QU_WEIGHTED_MODIFICATIONS___ iff (_WQU_PATHCOMPRESSION___ or _WQU_BYHEIGHT___ or _WQU_HALFING___)) and atmostone(_WQU_PATHCOMPRESSION___,_WQU_BYHEIGHT___,_WQU_HALFING___))
c ((not QU_WEIGHTED_MODIFICATIONS___ or _WQU_PATHCOMPRESSION___ or _WQU_BYHEIGHT___ or _WQU_HALFING___) and ((not _WQU_PATHCOMPRESSION___ and not _WQU_BYHEIGHT___ and not _WQU_HALFING___) or QU_WEIGHTED_MODIFICATIONS___) and (not _WQU_PATHCOMPRESSION___ or not _WQU_BYHEIGHT___) and (not _WQU_PATHCOMPRESSION___ or not _WQU_HALFING___) and (not _WQU_BYHEIGHT___ or not _WQU_HALFING___))
c x ((not QU_WEIGHTED_MODIFICATIONS___ or _WQU_PATHCOMPRESSION___ or _WQU_BYHEIGHT___ or _WQU_HALFING___) and (not _WQU_PATHCOMPRESSION___ or QU_WEIGHTED_MODIFICATIONS___) and (not _WQU_BYHEIGHT___ or QU_WEIGHTED_MODIFICATIONS___) and (not _WQU_HALFING___ or QU_WEIGHTED_MODIFICATIONS___) and (not _WQU_PATHCOMPRESSION___ or not _WQU_BYHEIGHT___) and (not _WQU_PATHCOMPRESSION___ or not _WQU_HALFING___) and (not _WQU_BYHEIGHT___ or not _WQU_HALFING___))
-5 15 13 11  0
-15 5  0
-13 5  0
-11 5  0
-15 -13  0
-15 -11  0
-13 -11  0
c (UNIONFINDSPL___ iff _UNIONFINDSPL___)
c ((not UNIONFINDSPL___ or _UNIONFINDSPL___) and (not _UNIONFINDSPL___ or UNIONFINDSPL___))
c x ((not UNIONFINDSPL___ or _UNIONFINDSPL___) and (not _UNIONFINDSPL___ or UNIONFINDSPL___))
-1 2  0
-2 1  0
c (_QUICKFIND___ iff QUICKFIND___)
c ((not _QUICKFIND___ or QUICKFIND___) and (not QUICKFIND___ or _QUICKFIND___))
c x ((not _QUICKFIND___ or QUICKFIND___) and (not QUICKFIND___ or _QUICKFIND___))
-7 8  0
-8 7  0
c (_WQU_PATHCOMPRESSION___ iff WQU_PATHCOMPRESSION___)
c ((not _WQU_PATHCOMPRESSION___ or WQU_PATHCOMPRESSION___) and (not WQU_PATHCOMPRESSION___ or _WQU_PATHCOMPRESSION___))
c x ((not _WQU_PATHCOMPRESSION___ or WQU_PATHCOMPRESSION___) and (not WQU_PATHCOMPRESSION___ or _WQU_PATHCOMPRESSION___))
-15 16  0
-16 15  0
c (_WQU_BYHEIGHT___ iff WQU_BYHEIGHT___)
c ((not _WQU_BYHEIGHT___ or WQU_BYHEIGHT___) and (not WQU_BYHEIGHT___ or _WQU_BYHEIGHT___))
c x ((not _WQU_BYHEIGHT___ or WQU_BYHEIGHT___) and (not WQU_BYHEIGHT___ or _WQU_BYHEIGHT___))
-13 14  0
-14 13  0
c (_QUICKUNION___ iff QUICKUNION___)
c ((not _QUICKUNION___ or QUICKUNION___) and (not QUICKUNION___ or _QUICKUNION___))
c x ((not _QUICKUNION___ or QUICKUNION___) and (not QUICKUNION___ or _QUICKUNION___))
-9 10  0
-10 9  0
c ((_UNIONFINDSPL___ iff UNIONFIND___) and (_UNIONFINDSPL___ iff TESTS___) and (QU_WEIGHTED_MODIFICATIONS___) implies (_UNIONFINDSPL___) and (QU_WEIGHTED___) implies (_UNIONFINDSPL___))
c ((not _UNIONFINDSPL___ or UNIONFIND___) and (not UNIONFIND___ or _UNIONFINDSPL___) and (not _UNIONFINDSPL___ or TESTS___) and (not TESTS___ or _UNIONFINDSPL___) and (not QU_WEIGHTED_MODIFICATIONS___ or _UNIONFINDSPL___) and (not QU_WEIGHTED___ or _UNIONFINDSPL___))
c x ((not _UNIONFINDSPL___ or UNIONFIND___) and (not UNIONFIND___ or _UNIONFINDSPL___) and (not _UNIONFINDSPL___ or TESTS___) and (not TESTS___ or _UNIONFINDSPL___) and (not QU_WEIGHTED_MODIFICATIONS___ or _UNIONFINDSPL___) and (not QU_WEIGHTED___ or _UNIONFINDSPL___))
-2 3  0
-3 2  0
-2 4  0
-4 2  0
-5 2  0
-6 2  0
c (_WQU_HALFING___ iff WQU_HALFING___)
c ((not _WQU_HALFING___ or WQU_HALFING___) and (not WQU_HALFING___ or _WQU_HALFING___))
c x ((not _WQU_HALFING___ or WQU_HALFING___) and (not WQU_HALFING___ or _WQU_HALFING___))
-11 12  0
-12 11  0
c (QU_WEIGHTED___) implies (QUICKUNION___)
c (not QU_WEIGHTED___ or QUICKUNION___)
c x (not QU_WEIGHTED___ or QUICKUNION___)
-6 10  0
c (QU_WEIGHTED_MODIFICATIONS___) implies (QU_WEIGHTED___)
c (not QU_WEIGHTED_MODIFICATIONS___ or QU_WEIGHTED___)
c x (not QU_WEIGHTED_MODIFICATIONS___ or QU_WEIGHTED___)
-5 6  0
c x UNIONFINDSPL___
1 0
c x TESTS___
4 0
c x UNIONFIND___
3 0
c x WQU_BYHEIGHT___
14 0
c x QUICKFIND___
8 0
c x QU_WEIGHTED_MODIFICATIONS___
5 0
c x QU_WEIGHTED___
6 0
c x UNIONFINDSPL___
1 0
c x QUICKUNION___
10 0
c x WQU_HALFING___
12 0
c x WQU_PATHCOMPRESSION___
16 0

